NAME : amz1185.62124_60624.tour
COMMENT : Cost = 62124_60624
COMMENT : Found by LKH-AMZ [Keld Helsgaun] Sun May 11 13:02:18 2025
COMMENT : TW viol.: 0 #: 0
TYPE : TOUR
DIMENSION : 75
TOUR_SECTION
16
57
63
3
68
59
69
48
27
74
72
52
23
42
58
44
10
6
51
8
21
31
38
62
47
54
18
37
32
75
34
49
64
70
40
28
11
9
41
71
19
35
46
33
5
14
56
65
20
2
13
55
17
15
61
66
29
26
7
73
1
24
43
53
50
4
60
30
39
45
25
22
36
12
67
-1
EOF
